
Gurobi 9.5.0 (linux64) logging started Fri Dec  8 09:10:06 2023

Set parameter LogFile to value "/lustre1/scratch/348/vsc34888/JointResearch/05.Models/06.Benchmarking/F.Representative_days_based_on_Line_Benefit_NN_OC_fy_1/RTS24_mod1_ByStages_nc10/openStarNet_RTS24_mod1_ByStages_nc10.log"
Set parameter Method to value 2
Set parameter MIPFocus to value 1
Set parameter Presolve to value 2
Set parameter RINS to value 100
Set parameter MIPGap to value 0.01
Set parameter Threads to value 36
Set parameter TimeLimit to value 259200
Set parameter IterationLimit to value 760000000
Gurobi Optimizer version 9.5.0 build v9.5.0rc5 (linux64)
Thread count: 36 physical cores, 36 logical processors, using up to 36 threads
Optimize a model with 3908 rows, 2663 columns and 10659 nonzeros
Model fingerprint: 0x1120ff5c
Variable types: 2642 continuous, 21 integer (21 binary)
Coefficient statistics:
  Matrix range     [1e-02, 4e+03]
  Objective range  [1e+00, 1e+00]
  Bounds range     [9e-05, 3e+00]
  RHS range        [9e-05, 3e+00]
Presolve removed 2328 rows and 1342 columns
Presolve time: 0.03s
Presolved: 1580 rows, 1321 columns, 5707 nonzeros
Variable types: 1300 continuous, 21 integer (21 binary)
Found heuristic solution: objective 93.3992784
Root relaxation presolve removed 3 rows and 3 columns
Root relaxation presolved: 1577 rows, 1318 columns, 5701 nonzeros

Root barrier log...

Ordering time: 0.02s

Barrier statistics:
 AA' NZ     : 2.815e+04
 Factor NZ  : 1.460e+05 (roughly 2 MB of memory)
 Factor Ops : 2.031e+07 (less than 1 second per iteration)
 Threads    : 36

                  Objective                Residual
Iter       Primal          Dual         Primal    Dual     Compl     Time
   0   6.20893160e+05 -5.51625911e+07  4.95e+00 1.35e+03  4.08e+04     0s
   1   5.23075138e+04 -1.37121555e+07  4.26e-01 1.09e-10  4.91e+03     0s
   2   1.71204942e+04 -9.87770591e+06  1.14e-01 8.04e-11  2.92e+03     0s
   3   5.90094566e+03 -6.09254873e+05  4.82e-04 3.92e-11  1.66e+02     0s
   4   3.95053119e+03 -9.36259044e+04  2.60e-06 2.91e-11  2.62e+01     0s
   5   9.12702646e+02 -1.18653398e+04  1.96e-13 1.46e-11  3.44e+00     0s
   6   3.64894042e+02 -2.99868675e+03  9.21e-14 3.64e-12  9.05e-01     0s
   7   1.70896541e+02 -8.00538406e+02  9.34e-14 7.28e-12  2.61e-01     0s
   8   7.04499449e+01 -1.72626272e+02  1.02e-13 1.46e-11  6.54e-02     0s
   9   5.37144256e+01 -3.55226417e+01  5.86e-14 3.64e-12  2.40e-02     0s
  10   4.34002195e+01  1.60255991e+01  3.21e-13 7.28e-12  7.36e-03     0s
  11   3.89625026e+01  2.85587338e+01  5.75e-13 7.28e-12  2.80e-03     0s
  12   3.62341929e+01  3.32768378e+01  7.53e-13 7.28e-12  7.95e-04     0s
  13   3.58110907e+01  3.47286333e+01  1.42e-12 3.64e-12  2.91e-04     0s
  14   3.53340261e+01  3.49893310e+01  4.71e-12 1.82e-12  9.27e-05     0s
  15   3.52180806e+01  3.51029657e+01  6.00e-12 7.28e-12  3.10e-05     0s
  16   3.51442276e+01  3.51205299e+01  4.76e-12 7.28e-12  6.37e-06     0s
  17   3.51353937e+01  3.51278092e+01  3.49e-12 3.64e-12  2.04e-06     0s
  18   3.51351365e+01  3.51348305e+01  4.42e-12 7.28e-12  8.23e-08     0s
  19   3.51351198e+01  3.51350647e+01  1.39e-09 3.64e-12  1.48e-08     0s
  20   3.51351161e+01  3.51351158e+01  2.01e-11 3.64e-12  7.21e-11     0s
  21   3.51351159e+01  3.51351159e+01  4.18e-11 3.64e-12  5.84e-13     0s

Barrier solved model in 21 iterations and 0.34 seconds (0.06 work units)
Optimal objective 3.51351159e+01


Root relaxation: objective 3.513512e+01, 224 iterations, 0.25 seconds (0.04 work units)

    Nodes    |    Current Node    |     Objective Bounds      |     Work
 Expl Unexpl |  Obj  Depth IntInf | Incumbent    BestBd   Gap | It/Node Time

     0     0   35.13512    0   11   93.39928   35.13512  62.4%     -    0s
H    0     0                      80.2500862   35.13512  56.2%     -    0s
H    0     0                      70.9194239   35.41234  50.1%     -    0s
     0     0   35.41234    0    8   70.91942   35.41234  50.1%     -    0s
     0     0   36.02826    0    9   70.91942   36.02826  49.2%     -    0s
     0     0   36.43151    0   11   70.91942   36.43151  48.6%     -    0s
H    0     0                      67.1607149   36.43151  45.8%     -    0s
H    0     0                      62.0271424   36.80001  40.7%     -    0s
     0     0   36.80001    0   12   62.02714   36.80001  40.7%     -    0s
     0     0   37.08346    0   13   62.02714   37.08346  40.2%     -    0s
     0     0   37.08346    0   13   62.02714   37.08346  40.2%     -    0s
     0     0   37.67761    0   13   62.02714   37.67761  39.3%     -    0s
     0     0   38.43756    0    9   62.02714   38.43756  38.0%     -    0s
     0     0   39.84647    0    9   62.02714   39.84647  35.8%     -    0s
     0     0   40.65687    0    9   62.02714   40.65687  34.5%     -    0s
H    0     0                      55.8530887   40.65687  27.2%     -    0s
     0     2   40.65687    0    9   55.85309   40.65687  27.2%     -    0s
H   99   125                      53.9951487   40.71431  24.6%  54.4    1s
H  109   125                      53.8830292   40.80158  24.3%  54.6    1s

Cutting planes:
  Gomory: 8
  Implied bound: 2
  MIR: 35
  Relax-and-lift: 9

Explored 1736 nodes (62005 simplex iterations) in 4.15 seconds (3.95 work units)
Thread count was 36 (of 36 available processors)

Solution count 8: 53.883 53.9951 55.8531 ... 93.3993

Optimal solution found (tolerance 1.00e-02)
Best objective 5.388302921850e+01, best bound 5.388302921850e+01, gap 0.0000%

Gurobi 9.5.0 (linux64) logging started Fri Dec  8 09:10:10 2023

Set parameter LogFile to value "/lustre1/scratch/348/vsc34888/JointResearch/05.Models/06.Benchmarking/F.Representative_days_based_on_Line_Benefit_NN_OC_fy_1/RTS24_mod1_ByStages_nc10/openStarNet_RTS24_mod1_ByStages_nc10.log"
Set parameter Method to value 2
Set parameter MIPFocus to value 1
Set parameter Presolve to value 2
Set parameter RINS to value 100
Set parameter MIPGap to value 0.01
Set parameter Threads to value 36
Set parameter TimeLimit to value 259200
Set parameter IterationLimit to value 760000000
No parameters matching 'relax_integrality' found
Gurobi Optimizer version 9.5.0 build v9.5.0rc5 (linux64)
Thread count: 36 physical cores, 36 logical processors, using up to 36 threads
Optimize a model with 3908 rows, 2642 columns and 9714 nonzeros
Model fingerprint: 0xa574b7ed
Coefficient statistics:
  Matrix range     [1e-02, 4e+03]
  Objective range  [1e+00, 1e+00]
  Bounds range     [9e-05, 3e+00]
  RHS range        [9e-05, 3e+01]
Presolve removed 3237 rows and 1455 columns
Presolve time: 0.01s
Presolved: 671 rows, 1198 columns, 2991 nonzeros

Ordering time: 0.00s

Barrier statistics:
 AA' NZ     : 1.508e+03
 Factor NZ  : 5.520e+03 (roughly 1 MB of memory)
 Factor Ops : 6.981e+04 (less than 1 second per iteration)
 Threads    : 1

                  Objective                Residual
Iter       Primal          Dual         Primal    Dual     Compl     Time
   0   2.24443823e+06 -1.22539347e+08  7.62e+00 8.49e+03  5.11e+05     0s
   1   1.75248326e+05 -7.96602542e+07  5.62e-01 3.76e-10  6.63e+04     0s
   2   5.47978759e+04 -2.24256577e+07  1.29e-01 3.73e-10  1.40e+04     0s
   3   3.13104232e+04 -4.40816885e+06  3.63e-02 2.87e-10  2.48e+03     0s
   4   2.20007085e+04 -2.80072308e+05  1.81e-12 2.43e-10  1.52e+02     0s
   5   7.16414195e+03 -4.72491466e+04  1.75e-12 1.01e-10  2.73e+01     0s
   6   1.22461381e+03 -5.77835921e+03  5.61e-13 5.82e-11  3.52e+00     0s
   7   3.67564715e+02 -7.66702503e+02  4.72e-13 5.82e-11  5.70e-01     0s
   8   1.21911468e+02 -9.51101210e+01  2.22e-13 1.16e-10  1.09e-01     0s
   9   7.21989429e+01  2.55125377e+01  1.81e-13 2.91e-11  2.35e-02     0s
  10   6.27003048e+01  4.06610983e+01  1.09e-13 7.28e-12  1.11e-02     0s
  11   5.70662053e+01  5.04314779e+01  1.03e-12 2.91e-11  3.33e-03     0s
  12   5.45648512e+01  5.21229293e+01  2.01e-12 1.46e-11  1.23e-03     0s
  13   5.39616275e+01  5.37591717e+01  1.86e-12 5.82e-11  1.02e-04     0s
  14   5.38933024e+01  5.38724080e+01  9.09e-13 1.16e-10  1.05e-05     0s
  15   5.38831690e+01  5.38827570e+01  5.51e-12 1.16e-10  2.07e-07     0s
  16   5.38830304e+01  5.38830274e+01  4.10e-13 2.91e-11  1.52e-09     0s
  17   5.38830292e+01  5.38830292e+01  8.34e-13 1.46e-11  1.72e-15     0s

Barrier solved model in 17 iterations and 0.02 seconds (0.01 work units)
Optimal objective 5.38830292e+01

Crossover log...

     144 DPushes remaining with DInf 0.0000000e+00                 0s
       0 DPushes remaining with DInf 0.0000000e+00                 0s

      30 PPushes remaining with PInf 0.0000000e+00                 0s
       0 PPushes remaining with PInf 0.0000000e+00                 0s

  Push phase complete: Pinf 0.0000000e+00, Dinf 3.9880875e-13      0s

Iteration    Objective       Primal Inf.    Dual Inf.      Time
      34    5.3883029e+01   0.000000e+00   0.000000e+00      0s

Use crossover to convert LP symmetric solution to basic solution...
Crossover log...

       0 DPushes remaining with DInf 0.0000000e+00                 0s

      23 PPushes remaining with PInf 0.0000000e+00                 0s
       0 PPushes remaining with PInf 0.0000000e+00                 0s

  Push phase complete: Pinf 0.0000000e+00, Dinf 1.0843555e-12      0s

Iteration    Objective       Primal Inf.    Dual Inf.      Time
      65    5.3883029e+01   0.000000e+00   0.000000e+00      0s

Solved in 65 iterations and 0.03 seconds (0.02 work units)
Optimal objective  5.388302922e+01
